<instance format="XCSP3" type="COP">
  <variables>
    <var id="c1"> 1..100 </var>
    <var id="c2"> 1..50 </var>
    <var id="c5"> 1..20 </var>
    <var id="c10"> 1..10 </var>
    <var id="c20"> 1..5 </var>
    <var id="c50"> 1..2 </var>
  </variables>
  <constraints>
    <sum>
      <list> c1 c2 c5 c10 c20 c50 </list>
      <coeffs> 1 2 5 10 20 50 </coeffs>
      <condition> (eq,83) </condition>
    </sum>
  </constraints>
  <objectives>
    <minimize type="sum"> c1 c2 c5 c10 c20 c50 </minimize>
  </objectives>
</instance>
